
******************************************************************************
This program contains Ipopt, a library for large-scale nonlinear optimization.
 Ipopt is released as open source code under the Eclipse Public License (EPL).
         For more information visit http://projects.coin-or.org/Ipopt
******************************************************************************

This is Ipopt version 3.12.6, running with linear solver ma57.

Number of nonzeros in equality constraint Jacobian...:  1164338
Number of nonzeros in inequality constraint Jacobian.:        0
Number of nonzeros in Lagrangian Hessian.............:   647194

Total number of variables............................:   130050
                     variables with only lower bounds:        0
                variables with lower and upper bounds:    65025
                     variables with only upper bounds:        0
Total number of equality constraints.................:    65025
Total number of inequality constraints...............:        0
        inequality constraints with only lower bounds:        0
   inequality constraints with lower and upper bounds:        0
        inequality constraints with only upper bounds:        0

iter    objective    inf_pr   inf_du lg(mu)  ||d||  lg(rg) alpha_du alpha_pr  ls
   0  1.2321924e-02 3.10e-06 1.94e-07  -1.0 0.00e+00    -  0.00e+00 0.00e+00   0
   1  1.1957193e-02 5.74e-14 2.02e-11  -1.7 1.96e-02    -  1.00e+00 1.00e+00f  1
   2  1.1875423e-02 7.28e-18 1.96e-14  -2.5 5.86e-02    -  1.00e+00 1.00e+00f  1
   3  1.1853930e-02 2.72e-16 2.91e-14  -3.8 1.89e-02    -  1.00e+00 1.00e+00f  1
   4  1.1849528e-02 6.27e-18 5.30e-17  -5.7 4.13e-03    -  1.00e+00 1.00e+00f  1
   5  1.1846674e-02 6.25e-18 2.01e-11  -8.6 3.82e-03    -  9.69e-01 1.00e+00f  1
   6  1.1706117e-02 1.19e-17 4.59e-08  -8.6 5.02e-01    -  3.85e-01 1.00e+00f  1
   7  1.1572422e-02 1.46e-17 2.47e-08  -8.6 2.44e-01    -  6.29e-01 1.00e+00f  1
   8  1.1480340e-02 1.46e-17 1.24e-08  -9.0 1.57e-01    -  7.12e-01 1.00e+00f  1
   9  1.1444678e-02 1.91e-17 1.09e-17  -9.0 9.98e-02    -  1.00e+00 1.00e+00f  1

Number of Iterations....: 9

                                   (scaled)                 (unscaled)
Objective...............:   1.1444677704007514e-02    1.1444677704007514e-02
Dual infeasibility......:   1.0889455569901285e-17    1.0889455569901285e-17
Constraint violation....:   1.9096781312321828e-17    1.9096781312321828e-17
Complementarity.........:   2.9303563585889483e-09    2.9303563585889483e-09
Overall NLP error.......:   2.9303563585889483e-09    2.9303563585889483e-09


Number of objective function evaluations             = 10
Number of objective gradient evaluations             = 10
Number of equality constraint evaluations            = 10
Number of inequality constraint evaluations          = 0
Number of equality constraint Jacobian evaluations   = 10
Number of inequality constraint Jacobian evaluations = 0
Number of Lagrangian Hessian evaluations             = 9
Total CPU secs in IPOPT (w/o function evaluations)   =     25.923
Total CPU secs in NLP function evaluations           =      2.903

EXIT: Optimal Solution Found.

************************ CUTEst statistics ************************


 Package used            :  IPOPT
 Problem                 :  RDW2D52F  
 # variables             =          132098
 # constraints           =           65025
 # objective functions   =        0.2100000E+02
 # objective gradients   =        0.1100000E+02
 # objective Hessians    =        0.1000000E+02
 # Hessian-vector prdct  =        0.0000000E+00
 # constraints functions =        0.2200000E+02
 # constraints gradients =        0.1200000E+02
 # constraints Hessians  =        0.1000000E+02
 Exit code               =               0
 Final f                 =   0.1144468E-01
 Set up time             =            1.24 seconds
 Solve time              =           59.39 seconds


******************************************************************

System Time =      17.6949996948 s.
